SystemName          NiO Hubbard Benchmark
SystemLabel NiO_SCREENING_3POINT_J2_alpha+0.0100_BARE

NumberOfAtoms       8
NumberOfSpecies 5

%block ChemicalSpeciesLabel
  1  28  NiLR0
  2  28  NiLR1
  3  28  NiLR2
  4  28  NiLR3
  5   8  O
%endblock ChemicalSpeciesLabel

LatticeConstant     4.1770 Ang
%block LatticeVectors
  0.0  1.0  1.0
  0.5  0.0  0.5
  0.5  0.5  0.0
%endblock LatticeVectors

AtomicCoordinatesFormat  Fractional
%block AtomicCoordinatesAndAtomicSpecies
    0.000000    0.000000    0.000000    1   # NiLR0
    0.500000    0.500000    0.000000    2   # NiLR1
    0.500000    0.000000    0.500000    3   # NiLR2
    0.000000    0.500000    0.500000    4   # NiLR3
    0.500000    0.000000    0.000000    5   # O
    0.000000    0.500000    0.000000    5   # O
    0.000000    0.000000    0.500000    5   # O
    0.500000    0.500000    0.500000    5   # O
%endblock AtomicCoordinatesAndAtomicSpecies

PAO.BasisSize       DZP
PAO.EnergyShift     0.005 Ry
PAO.SplitNorm       0.15
PAO.BasisType       split

MeshCutoff          200 Ry
%block kgrid_Monkhorst_Pack
  4 0 0 0.0
  0 4 0 0.0
  0 0 4 0.0
%endblock kgrid_Monkhorst_Pack
MaxSCFIterations 2
Spin polarized
%block DM.InitSpin
  1  +2.0
  2  -2.0
  3  +2.0
  4  -2.0
  5  +0.0
  6  +0.0
  7  +0.0
  8  +0.0
%endblock DM.InitSpin
MD.NumCGsteps       0

%block DFTU.proj
  NiLR0   1
  3  2
  0.0000  0.0000
  3.0000  0.0500
  NiLR1   1
  3  2
  0.0000  0.0000
  3.0000  0.0500
  NiLR2   1
  3  2
  0.0100  0.0000
  3.0000  0.0500
  NiLR3   1
  3  2
  0.0000  0.0000
  3.0000  0.0500
%endblock DFTU.proj
DFTU.PotentialShift true
DFTU.ProjectorGenerationMethod 2
DFTU.FirstIteration true
SCF.MustConverge F
DM.UseSaveDM true
SCF.Mix density
SCF.Mixer.Method Linear
SCF.Mixer.Weight 1.0
