SystemName          Cobalt Oxide (Rock-salt)
SystemLabel         CoO_BARE_-0.02

NumberOfAtoms       2
NumberOfSpecies     2

%block ChemicalSpeciesLabel
 1  27  Co
 2   8  O
%endblock ChemicalSpeciesLabel

# Primitive cell of FCC Rock-salt (a = 4.26 Angstroms)
LatticeConstant     4.26 Ang
%block LatticeVectors
  0.0  0.5  0.5
  0.5  0.0  0.5
  0.5  0.5  0.0
%endblock LatticeVectors

# Atom coordinates (fractional)
AtomicCoordinatesFormat  Fractional
%block AtomicCoordinatesAndAtomicSpecies
 0.0  0.0  0.0   1   # Co at origin
 0.5  0.5  0.5   2   # O at half diagonal
%endblock AtomicCoordinatesAndAtomicSpecies

# Hyper-lightweight parameters for campaign
PAO.BasisSize       DZP        # Double-Zeta Polarization basis for realistic screening
MeshCutoff          150 Ry
%block kgrid_Monkhorst_Pack
 2 0 0 0.0
 0 2 0 0.0
 0 0 2 0.0
%endblock kgrid_Monkhorst_Pack

# SCF settings
MaxSCFIterations    2
DM.MixingWeight     1.0
DM.NumberPulay      3

# Spin polarization
Spin                polarized
%block DM.InitSpin
 1 +3.0
 2  0.0
%endblock DM.InitSpin

# -------- HUBBARD U SETTINGS --------
DFTU.ProjectorGenerationMethod  1  # Use PAO orbitals
DFTU.PotentialShift true

# Output controls
WriteCoorXmol       true
WriteForces         true
WriteDM             true

%block DFTU.proj
  Co   1
  3  2
  -0.0200  0.0000
  0.0000
%endblock DFTU.proj
DM.UseSaveDM true
