SystemName          Cu3N
SystemLabel         Cu3N_BARE_-0.02

NumberOfAtoms       4
NumberOfSpecies     3

%block ChemicalSpeciesLabel
 1  29  Cu1
 2  29  Cu2
 3   7  N
%endblock ChemicalSpeciesLabel

LatticeConstant     3.81 Ang
%block LatticeVectors
 1.0  0.0  0.0
 0.0  1.0  0.0
 0.0  0.0  1.0
%endblock LatticeVectors

AtomicCoordinatesFormat Fractional
%block AtomicCoordinatesAndAtomicSpecies
 0.0  0.0  0.0  3
 0.5  0.0  0.0  1
 0.0  0.5  0.0  2
 0.0  0.0  0.5  2
%endblock AtomicCoordinatesAndAtomicSpecies

PAO.BasisSize       DZP
MeshCutoff          300.0 Ry

%block kgrid_Monkhorst_Pack
 2 0 0 0.0
 0 2 0 0.0
 0 0 2 0.0
%endblock kgrid_Monkhorst_Pack
MaxSCFIterations    2
DM.MixingWeight     1.0
DM.Tolerance        1.d-4
DM.NumberPulay      4

Spin                non-polarized

SaveRho             F
SaveDeltaRho        F
SaveHS              F

%block DFTU.proj
  Cu1   1
  3  2
  1.7600  0.1000
  0.0000  -0.0200
  0.0000
%endblock DFTU.proj
DFTU.PotentialShift true
DM.UseSaveDM true
