SystemName          Nickel Oxide (Rock-salt)
SystemLabel         NiO_SCR_+0.01

NumberOfAtoms       2
NumberOfSpecies     2

%block ChemicalSpeciesLabel
 1  28  Ni
 2   8  O
%endblock ChemicalSpeciesLabel

# Primitive cell of FCC Rock-salt (a = 4.17 Angstroms)
LatticeConstant     4.17 Ang
%block LatticeVectors
  0.0  0.5  0.5
  0.5  0.0  0.5
  0.5  0.5  0.0
%endblock LatticeVectors

# Atom coordinates (fractional)
AtomicCoordinatesFormat  Fractional
%block AtomicCoordinatesAndAtomicSpecies
 0.0  0.0  0.0   1   # Ni at origin
 0.5  0.5  0.5   2   # O at half diagonal
%endblock AtomicCoordinatesAndAtomicSpecies

# Hyper-lightweight parameters for campaign
PAO.BasisSize       DZP        # Double-Zeta Polarization basis for realistic screening
MeshCutoff          150 Ry
%block kgrid_Monkhorst_Pack
 2 0 0 0.0
 0 2 0 0.0
 0 0 2 0.0
%endblock kgrid_Monkhorst_Pack

# SCF settings
MaxSCFIterations    50
DM.MixingWeight     0.1
DM.NumberPulay      3

# Spin polarization
Spin                polarized
%block DM.InitSpin
 1 +2.0
 2  0.0
%endblock DM.InitSpin

# -------- HUBBARD U SETTINGS --------
DFTU.ProjectorGenerationMethod  1  # Use PAO orbitals
DFTU.PotentialShift true

# Output controls
WriteCoorXmol       true
WriteForces         true
WriteDM             true

%block DFTU.proj
  Ni   1
  3  2
  0.0100  0.0000
  0.0000
%endblock DFTU.proj
DM.UseSaveDM true
