SystemName          Cu2O Hubbard Benchmark
SystemLabel Cu2O_SCREENING_3POINT_J0_alpha+0.0100_BARE

NumberOfAtoms       6
NumberOfSpecies 5

%block ChemicalSpeciesLabel
  1  29  CuLR0
  2  29  CuLR1
  3  29  CuLR2
  4  29  CuLR3
  5   8  O
%endblock ChemicalSpeciesLabel

LatticeConstant     4.2700 Ang
%block LatticeVectors
  1.0  0.0  0.0
  0.0  1.0  0.0
  0.0  0.0  1.0
%endblock LatticeVectors

AtomicCoordinatesFormat  Fractional
%block AtomicCoordinatesAndAtomicSpecies
    0.000000    0.000000    0.000000    5   # O
    0.500000    0.500000    0.500000    5   # O
    0.250000    0.250000    0.250000    1   # CuLR0
    0.250000    0.750000    0.750000    2   # CuLR1
    0.750000    0.250000    0.750000    3   # CuLR2
    0.750000    0.750000    0.250000    4   # CuLR3
%endblock AtomicCoordinatesAndAtomicSpecies

PAO.BasisSize       DZP
PAO.EnergyShift     0.005 Ry
PAO.SplitNorm       0.15
PAO.BasisType       split

MeshCutoff          200 Ry
%block kgrid_Monkhorst_Pack
  2 0 0 0.0
  0 2 0 0.0
  0 0 2 0.0
%endblock kgrid_Monkhorst_Pack
MaxSCFIterations 2
Spin non-polarized
MD.NumCGsteps       0

%block DFTU.proj
  CuLR0   1
  3  2
  0.0100  0.0000
  3.0000  0.0500
  CuLR1   1
  3  2
  0.0000  0.0000
  3.0000  0.0500
  CuLR2   1
  3  2
  0.0000  0.0000
  3.0000  0.0500
  CuLR3   1
  3  2
  0.0000  0.0000
  3.0000  0.0500
%endblock DFTU.proj
DFTU.PotentialShift true
DFTU.ProjectorGenerationMethod 2
DFTU.FirstIteration true
SCF.MustConverge F
DM.UseSaveDM true
SCF.Mix density
SCF.Mixer.Method Linear
SCF.Mixer.Weight 1.0
